1051, 0, 0, 40, 0
1052, 0, 1, 75, 2
1053, 0, 2, 48, 4
1054, 0, 3, 92, 1
1055, 0, 4, 94, 3
1056, 1, 0, 70, 4
1057, 1, 1, 64, 1
1058, 1, 2, 57, 2
1059, 1, 3, 72, 0
1060, 1, 4, 66, 3
1061, 2, 0, 48, 4
1062, 2, 1, 68, 1
1063, 2, 2, 54, 2
1064, 2, 3, 86, 3
1065, 2, 4, 31, 0
1066, 3, 0, 52, 3
1067, 3, 1, 98, 4
1068, 3, 2, 55, 2
1069, 3, 3, 37, 0
1070, 3, 4, 60, 1
